num_tasks=82;
num_machines=3;
comp_cost=[|0, 0, 0, 
|59, 143, 130,
|91, 121, 97,
|77, 93, 60,
|145, 57, 54,
|89, 116, 93,
|131, 89, 97,
|75, 67, 100,
|96, 116, 122,
|136, 53, 126,
|51, 98, 73,
|112, 116, 117,
|118, 75, 59,
|85, 62, 101,
|96, 124, 102,
|111, 144, 122,
|53, 97, 81,
|138, 78, 125,
|79, 100, 78,
|57, 147, 74,
|149, 137, 126,
|72, 85, 119,
|88, 56, 144,
|143, 84, 64,
|78, 80, 77,
|126, 78, 148,
|129, 115, 60,
|50, 50, 147,
|103, 115, 65,
|85, 93, 125,
|79, 143, 130,
|141, 144, 146,
|112, 107, 130,
|72, 128, 57,
|63, 113, 82,
|70, 66, 140,
|63, 135, 85,
|54, 139, 52,
|128, 114, 71,
|142, 115, 72,
|114, 132, 78,
|77, 123, 73,
|105, 103, 92,
|121, 132, 133,
|97, 66, 60,
|100, 131, 57,
|97, 72, 120,
|83, 66, 107,
|137, 76, 78,
|113, 136, 105,
|54, 89, 96,
|61, 129, 71,
|110, 148, 53,
|81, 102, 82,
|118, 145, 62,
|133, 81, 88,
|68, 103, 117,
|125, 55, 73,
|70, 94, 115,
|114, 130, 67,
|70, 66, 117,
|98, 72, 94,
|113, 128, 100,
|132, 67, 75,
|60, 149, 145,
|59, 147, 59,
|90, 89, 117,
|123, 77, 90,
|79, 78, 62,
|50, 119, 58,
|87, 90, 53,
|130, 83, 128,
|75, 62, 86,
|96, 82, 65,
|74, 90, 132,
|111, 73, 147,
|83, 65, 115,
|97, 76, 140,
|127, 125, 64,
|80, 121, 123,
|86, 93, 84,
|0, 0, 0|];
comm_cost=[|0,0,0,0,0,0,0,0,0,0,0,0,0,0,0,0,0,0,0,0,0,0,0,0,0,0,0,0,0,0,0,0,0,0,0,0,0
,0,0,0,0,0,0,0,0,0,0,0,0,0,0,0,0,0,0,0,0,0,0,0,0,0,0,0,0,0,0,0,0,0,0,0,0,0
,0,0,0,0,0,0,0,0,
|0,0,59,120,55,112,101,88,86,96,142,130,135,51,69,146,101,92
,58,139,127,138,148,132,73,148,83,124,128,83,80,123,133,137,111,90
,125,98,97,73,56,0,0,0,0,0,0,0,0,0,0,0,0,0
,0,0,0,0,0,0,0,0,0,0,0,0,0,0,0,0,0,0
,0,0,0,0,0,0,0,0,0,0,
|0,0,0,147,0,123,137,0,0,0,0,0,84,93,123,62,138,0
,102,0,54,0,0,0,89,91,101,0,56,114,128,55,0,0,0,91
,0,57,0,77,0,0,129,77,0,0,0,141,0,0,115,125,0,51
,68,0,72,0,146,0,81,119,142,64,106,113,92,102,108,128,64,148
,0,0,0,0,0,0,0,0,0,0,
|0,0,0,0,0,0,0,82,55,68,76,133,0,0,0,0,127,64
,147,0,71,0,94,0,146,0,0,0,89,133,0,117,0,62,132,92
,0,93,0,142,134,0,0,97,0,0,0,0,58,0,67,0,0,67
,0,148,148,0,123,77,144,0,88,0,102,0,130,117,136,0,113,0
,96,119,142,72,0,0,0,0,0,0,
|0,0,0,0,0,55,105,0,0,149,0,95,113,0,83,111,85,112
,58,58,83,112,0,0,0,0,100,98,0,0,0,109,0,145,0,0
,105,66,138,0,91,0,0,122,0,0,90,111,0,75,112,0,0,124
,85,133,0,0,0,64,0,0,0,0,110,0,0,141,86,0,73,103
,96,0,144,72,0,61,87,109,0,0,
|0,0,0,0,0,0,0,0,0,69,65,99,98,133,0,0,0,0
,0,0,0,105,149,0,56,0,79,70,118,97,0,0,0,0,0,63
,112,80,0,0,141,0,0,0,71,0,0,103,0,0,0,0,0,0
,0,0,88,0,0,0,0,0,0,132,0,72,113,147,148,102,96,0
,0,0,93,0,0,0,59,0,132,0,
|0,0,0,0,0,0,0,0,50,0,0,0,113,0,53,0,137,108
,0,0,123,0,76,59,78,0,0,71,0,0,66,0,124,0,97,0
,0,128,134,107,62,0,0,0,104,0,88,0,0,57,75,0,0,0
,112,99,108,0,93,90,0,0,0,74,0,59,111,0,100,0,0,0
,0,0,0,92,0,106,122,0,0,0,
|0,0,0,0,0,0,0,0,70,0,101,0,76,102,63,0,89,62
,0,83,141,0,0,0,140,0,69,144,55,0,0,80,104,0,78,82
,135,0,66,92,0,0,0,0,111,0,144,125,0,108,0,0,135,0
,97,0,56,0,0,122,0,0,0,144,117,0,110,123,141,72,0,0
,0,136,63,112,0,0,78,0,139,0,
|0,0,0,0,0,0,0,0,0,82,0,0,112,73,117,63,148,102
,0,0,0,113,0,0,0,114,0,116,94,122,95,79,128,0,140,125
,94,0,111,0,143,0,0,0,0,0,102,0,0,88,145,126,0,0
,0,64,0,109,92,83,0,0,0,76,50,0,70,0,121,93,128,0
,129,60,90,0,0,0,0,123,122,0,
|0,0,0,0,0,0,0,0,0,0,142,0,0,0,137,0,0,83
,68,110,71,58,0,87,0,0,0,70,0,0,71,92,117,0,69,83
,0,0,54,111,0,0,0,0,0,116,71,148,0,113,0,0,106,0
,0,114,94,96,0,0,0,0,0,93,82,0,0,0,62,0,82,0
,111,121,0,67,0,0,0,143,0,0,
|0,0,0,0,0,0,0,0,0,0,0,114,146,0,58,0,0,99
,0,0,0,0,0,0,0,52,0,0,0,57,0,0,51,0,76,0
,0,0,78,0,0,0,0,0,0,0,82,77,0,0,0,0,83,58
,0,64,0,0,0,0,0,0,0,59,0,129,0,0,116,52,105,131
,0,0,104,0,0,63,65,0,0,0,
|0,0,0,0,0,0,0,0,0,0,0,0,107,0,130,84,66,74
,0,0,61,0,79,120,0,142,0,0,68,97,128,0,0,103,0,0
,120,0,0,0,138,0,0,0,0,0,0,137,134,123,0,82,145,127
,137,71,0,0,0,141,0,0,0,0,0,101,64,0,0,0,106,145
,0,146,89,129,0,114,133,123,0,0,
|0,0,0,0,0,0,0,0,0,0,0,0,0,138,111,70,0,60
,0,0,143,75,0,59,0,0,54,139,0,0,0,0,0,0,0,117
,73,125,0,71,0,0,0,0,0,0,0,0,55,0,116,62,0,51
,82,54,133,0,0,0,0,0,0,0,76,120,0,0,100,0,0,105
,0,128,71,120,0,98,57,82,0,0,
|0,0,0,0,0,0,0,0,0,0,0,0,0,0,61,0,0,81
,0,0,0,0,128,0,92,75,138,79,0,0,74,142,51,0,0,0
,0,83,96,0,149,0,0,0,0,0,0,52,0,0,0,0,0,75
,58,136,0,101,0,90,0,0,0,0,74,106,106,54,0,115,0,0
,0,0,104,128,0,0,121,0,50,0,
|0,0,0,0,0,0,0,0,0,0,0,0,0,0,0,139,84,60
,0,0,0,62,121,135,137,0,96,105,0,110,0,90,130,0,0,0
,100,77,53,117,0,0,0,0,0,0,0,72,136,72,113,0,83,124
,0,127,0,141,115,120,0,0,0,0,51,104,0,146,84,0,87,78
,0,55,0,121,0,55,100,0,66,0,
|0,0,0,0,0,0,0,0,0,0,0,0,0,0,0,0,141,137
,52,0,0,0,0,62,0,117,138,81,104,144,0,0,90,0,0,0
,0,148,0,0,68,0,0,0,0,0,0,0,0,0,138,107,52,90
,85,75,115,89,117,0,0,0,0,0,128,144,0,54,0,0,77,145
,0,145,0,95,0,123,145,78,0,0,
|0,0,0,0,0,0,0,0,0,0,0,0,0,0,0,0,0,70
,0,97,144,68,0,0,0,0,0,0,0,0,0,0,0,0,0,98
,128,0,0,0,63,0,0,0,0,0,0,0,0,0,103,0,0,0
,89,64,0,0,124,128,0,0,0,0,123,67,81,74,127,0,110,127
,0,0,0,0,0,126,0,0,67,0,
|0,0,0,0,0,0,0,0,0,0,0,0,0,0,0,0,0,0
,0,68,0,81,93,0,74,0,0,0,0,75,0,102,0,100,113,79
,0,0,0,50,139,0,0,0,0,0,0,0,0,0,92,0,58,0
,92,77,0,81,78,0,0,0,0,0,0,100,0,62,51,0,0,0
,0,96,0,0,0,0,94,122,97,0,
|0,0,0,0,0,0,0,0,0,0,0,0,0,0,0,0,0,0
,0,0,0,122,97,0,0,0,115,53,0,133,108,0,0,63,0,0
,70,0,0,0,0,0,0,0,0,0,0,0,0,0,0,78,79,0
,0,117,0,70,77,124,0,0,0,0,82,0,55,137,0,0,0,0
,0,0,84,0,0,0,61,82,0,0,
|0,0,0,0,0,0,0,0,0,0,0,0,0,0,0,0,0,0
,0,0,113,121,68,137,0,0,0,125,0,0,84,85,51,64,124,87
,62,0,0,80,0,0,0,0,0,0,0,0,0,0,0,139,59,0
,0,0,0,55,146,0,0,0,0,0,131,0,0,96,92,0,0,72
,0,116,0,122,0,0,112,0,146,0,
|0,0,0,0,0,0,0,0,0,0,0,0,0,0,0,0,0,0
,0,0,0,147,0,0,76,0,0,0,120,0,124,0,119,0,0,144
,86,80,96,0,0,0,0,0,0,0,0,0,0,0,108,83,0,108
,0,0,0,0,0,0,0,0,0,0,125,82,0,0,0,63,0,90
,0,0,106,0,0,75,86,0,0,0,
|0,0,0,0,0,0,0,0,0,0,0,0,0,0,0,0,0,0
,0,0,0,0,0,61,119,100,0,123,0,0,108,81,0,144,93,0
,57,0,0,139,137,0,0,0,0,0,0,0,0,0,134,0,0,0
,0,143,138,0,111,134,0,0,0,0,115,65,0,0,112,0,102,101
,0,0,0,96,0,0,0,0,0,0,
|0,0,0,0,0,0,0,0,0,0,0,0,0,0,0,0,0,0
,0,0,0,0,0,0,148,106,84,0,0,0,98,0,138,0,144,129
,95,143,96,0,87,0,0,0,0,0,0,0,0,0,95,105,78,54
,0,85,50,135,69,102,0,0,0,0,109,104,0,73,0,101,87,122
,0,0,0,0,0,70,0,0,0,0,
|0,0,0,0,0,0,0,0,0,0,0,0,0,0,0,0,0,0
,0,0,0,0,0,0,0,0,0,0,112,78,88,148,116,0,0,0
,65,78,97,0,53,0,0,0,0,0,0,0,0,0,0,136,0,0
,0,123,0,143,50,87,0,0,0,0,0,135,0,0,133,60,98,0
,0,136,0,58,0,0,131,0,0,0,
|0,0,0,0,0,0,0,0,0,0,0,0,0,0,0,0,0,0
,0,0,0,0,0,0,0,108,0,0,149,112,93,0,0,133,61,76
,0,70,55,147,105,0,0,0,0,0,0,0,0,0,0,0,146,0
,0,117,0,0,0,0,0,0,0,0,0,128,67,0,118,120,0,78
,0,0,85,0,0,0,134,0,0,0,
|0,0,0,0,0,0,0,0,0,0,0,0,0,0,0,0,0,0
,0,0,0,0,0,0,0,0,81,0,0,0,64,0,0,133,74,0
,0,104,0,132,68,0,0,0,0,0,0,0,0,0,0,0,0,125
,107,60,104,0,0,0,0,0,0,0,0,143,0,0,109,128,0,134
,0,137,134,112,0,0,79,69,0,0,
|0,0,0,0,0,0,0,0,0,0,0,0,0,0,0,0,0,0
,0,0,0,0,0,0,0,0,0,101,127,0,115,0,0,141,0,99
,0,0,131,0,0,0,0,0,0,0,0,0,0,0,0,0,102,0
,66,57,0,0,0,140,0,0,0,0,0,0,0,70,122,110,0,149
,0,0,131,0,0,0,0,83,0,0,
|0,0,0,0,0,0,0,0,0,0,0,0,0,0,0,0,0,0
,0,0,0,0,0,0,0,0,0,0,98,0,71,0,57,0,0,104
,0,0,131,0,0,0,0,0,0,0,0,0,0,0,0,0,132,110
,0,145,0,0,0,0,0,0,0,0,0,0,68,89,55,0,0,0
,0,0,0,147,0,0,53,129,0,0,
|0,0,0,0,0,0,0,0,0,0,0,0,0,0,0,0,0,0
,0,0,0,0,0,0,0,0,0,0,0,0,0,0,0,65,0,120
,125,108,55,68,75,0,0,0,0,0,0,0,0,0,0,0,0,0
,0,74,0,87,0,0,0,0,0,0,0,66,78,141,101,0,135,0
,0,0,130,0,0,0,55,148,0,0,
|0,0,0,0,0,0,0,0,0,0,0,0,0,0,0,0,0,0
,0,0,0,0,0,0,0,0,0,0,0,0,57,0,138,0,103,113
,74,0,146,0,0,0,0,0,0,0,0,0,0,0,0,0,0,0
,0,100,0,110,0,0,0,0,0,0,0,0,52,108,133,0,0,77
,0,0,115,0,0,0,81,79,0,0,
|0,0,0,0,0,0,0,0,0,0,0,0,0,0,0,0,0,0
,0,0,0,0,0,0,0,0,0,0,0,0,0,0,0,144,123,111
,62,0,0,84,97,0,0,0,0,0,0,0,0,0,0,0,0,141
,113,142,0,0,145,0,0,0,0,0,0,0,122,140,72,0,0,0
,0,0,0,0,0,0,0,0,0,0,
|0,0,0,0,0,0,0,0,0,0,0,0,0,0,0,0,0,0
,0,0,0,0,0,0,0,0,0,0,0,0,0,0,91,0,97,67
,54,140,149,133,126,0,0,0,0,0,0,0,0,0,0,0,0,111
,0,97,0,0,0,0,0,0,0,0,0,0,0,0,0,0,0,0
,0,0,73,121,0,0,140,0,0,0,
|0,0,0,0,0,0,0,0,0,0,0,0,0,0,0,0,0,0
,0,0,0,0,0,0,0,0,0,0,0,0,0,0,0,0,116,0
,0,85,0,87,130,0,0,0,0,0,0,0,0,0,0,0,0,0
,90,93,0,53,139,102,0,0,0,0,0,0,0,95,120,119,144,0
,0,0,97,0,0,0,50,0,0,0,
|0,0,0,0,0,0,0,0,0,0,0,0,0,0,0,0,0,0
,0,0,0,0,0,0,0,0,0,0,0,0,0,0,0,0,65,99
,0,0,0,0,117,0,0,0,0,0,0,0,0,0,0,0,0,0
,0,0,0,0,0,0,0,0,0,0,0,0,0,0,85,0,130,0
,0,0,0,57,0,0,103,0,0,0,
|0,0,0,0,0,0,0,0,0,0,0,0,0,0,0,0,0,0
,0,0,0,0,0,0,0,0,0,0,0,0,0,0,0,0,0,0
,141,0,74,0,88,0,0,0,0,0,0,0,0,0,0,0,0,0
,0,0,0,121,139,0,0,0,0,0,0,0,0,0,143,0,0,81
,0,0,69,0,0,0,91,0,0,0,
|0,0,0,0,0,0,0,0,0,0,0,0,0,0,0,0,0,0
,0,0,0,0,0,0,0,0,0,0,0,0,0,0,0,0,0,0
,0,115,101,0,139,0,0,0,0,0,0,0,0,0,0,0,0,0
,0,0,0,116,103,95,0,0,0,0,0,0,0,0,0,101,0,106
,0,0,142,0,0,0,0,0,0,0,
|0,0,0,0,0,0,0,0,0,0,0,0,0,0,0,0,0,0
,0,0,0,0,0,0,0,0,0,0,0,0,0,0,0,0,0,0
,0,0,0,122,82,0,0,0,0,0,0,0,0,0,0,0,0,0
,0,0,0,0,58,79,0,0,0,0,0,0,0,0,54,0,0,55
,0,0,0,136,0,0,111,0,0,0,
|0,0,0,0,0,0,0,0,0,0,0,0,0,0,0,0,0,0
,0,0,0,0,0,0,0,0,0,0,0,0,0,0,0,0,0,0
,0,0,82,0,139,0,0,0,0,0,0,0,0,0,0,0,0,0
,0,0,0,0,0,102,0,0,0,0,0,0,0,0,65,0,57,0
,0,0,0,75,0,0,0,0,0,0,
|0,0,0,0,0,0,0,0,0,0,0,0,0,0,0,0,0,0
,0,0,0,0,0,0,0,0,0,0,0,0,0,0,0,0,0,0
,0,0,0,147,103,0,0,0,0,0,0,0,0,0,0,0,0,0
,0,0,0,0,0,52,0,0,0,0,0,0,0,0,0,0,0,0
,0,0,0,0,0,0,0,0,0,0,
|0,0,0,0,0,0,0,0,0,0,0,0,0,0,0,0,0,0
,0,0,0,0,0,0,0,0,0,0,0,0,0,0,0,0,0,0
,0,0,0,0,0,0,0,0,0,0,0,0,0,0,0,0,0,0
,0,0,0,0,0,0,0,0,0,0,0,0,0,0,0,0,0,94
,0,0,107,116,0,0,0,0,0,0,
|0,0,0,0,0,0,0,0,0,0,0,0,0,0,0,0,0,0,0,0,0,0,0,0,0,0,0,0,0,0,0,0,0,0,0,0,0
,0,0,0,0,0,0,0,0,0,0,0,0,0,0,0,0,0,0,0,0,0,0,0,0,0,0,0,0,0,0,0,0,0,0,0,0,0
,0,0,0,0,0,0,0,0,
|0,0,0,0,127,0,62,0,0,83,127,124,136,127,136,52,105,0
,0,0,0,0,93,0,111,149,0,0,0,0,0,90,0,0,0,113
,0,0,125,0,0,0,139,120,50,131,70,148,103,103,132,148,69,148
,92,69,145,65,83,92,0,0,0,0,0,0,0,0,0,0,0,0
,0,0,0,0,0,0,0,0,0,0,
|0,0,0,0,0,0,124,0,51,0,136,0,0,0,121,59,85,116
,145,0,0,132,68,0,0,0,0,0,0,0,0,0,0,111,0,0
,0,0,0,0,83,0,0,98,0,115,0,146,0,0,117,0,0,0
,0,0,0,62,0,59,0,0,0,0,91,149,60,146,118,0,0,0
,94,121,0,0,142,0,0,101,0,0,
|0,0,0,0,0,141,0,0,0,0,115,148,0,123,0,0,0,67
,0,0,134,0,143,88,0,58,0,0,99,146,0,0,73,101,106,0
,0,0,0,0,0,0,0,0,0,0,62,0,0,0,0,63,57,0
,122,121,56,76,0,0,0,0,0,89,0,72,66,0,0,0,0,95
,0,0,0,83,0,0,0,0,58,0,
|0,0,0,0,0,0,0,0,0,0,0,0,0,113,0,114,83,0
,51,107,66,0,59,142,60,0,84,0,117,0,123,144,119,142,56,90
,0,0,56,0,0,0,0,0,0,0,54,0,0,0,121,0,142,87
,0,123,132,100,139,98,0,0,0,110,0,51,0,123,109,0,0,89
,0,0,121,0,0,0,0,136,121,0,
|0,0,0,0,0,0,0,0,0,0,0,0,0,57,140,0,97,94
,0,56,0,0,117,0,141,0,143,91,0,64,142,0,0,115,0,51
,0,69,0,0,91,0,0,0,0,0,131,0,0,0,0,50,129,0
,0,0,53,0,56,138,0,0,0,0,0,115,55,0,90,141,0,0
,0,107,0,139,0,0,106,63,0,0,
|0,0,0,0,0,0,0,0,0,0,0,0,0,0,90,0,81,53
,97,0,84,141,111,0,54,0,0,136,65,0,132,0,56,0,0,89
,0,90,0,0,149,0,0,0,0,0,0,0,0,0,71,0,75,0
,0,90,0,0,0,121,0,0,0,0,127,0,0,0,0,0,127,0
,0,0,0,59,0,142,87,0,119,0,
|0,0,0,0,0,0,0,0,0,0,0,0,0,0,0,94,61,52
,0,0,51,0,0,133,107,0,0,0,72,97,82,0,0,133,147,0
,118,0,121,0,0,0,0,0,0,0,0,0,0,0,87,86,98,66
,0,98,0,0,78,113,0,0,0,0,0,123,85,0,0,0,0,0
,0,122,135,0,0,0,144,0,87,0,
|0,0,0,0,0,0,0,0,0,0,0,0,0,0,0,83,148,0
,0,0,0,146,53,58,70,0,76,0,84,0,52,51,0,86,109,0
,96,0,0,132,0,0,0,0,0,0,0,0,0,0,115,0,74,0
,0,67,0,62,0,92,0,0,0,0,0,0,67,139,0,96,143,0
,0,80,84,0,0,63,129,0,0,0,
|0,0,0,0,0,0,0,0,0,0,0,0,0,0,0,0,0,143
,127,0,63,66,0,61,0,75,101,146,115,59,135,0,0,0,0,0
,135,97,61,0,66,0,0,0,0,0,0,0,0,0,51,0,0,59
,93,108,68,111,113,0,0,0,0,0,98,75,99,0,0,0,0,148
,0,116,111,61,0,0,84,0,0,0,
|0,0,0,0,0,0,0,0,0,0,0,0,0,0,0,0,0,0
,0,0,0,0,0,0,0,144,0,0,0,0,80,148,0,0,0,0
,0,65,0,0,0,0,0,0,0,0,0,0,0,0,0,64,122,0
,0,0,97,64,0,85,0,0,0,0,0,0,91,0,0,105,143,0
,0,0,135,0,0,54,106,64,0,0,
|0,0,0,0,0,0,0,0,0,0,0,0,0,0,0,0,0,0
,0,0,0,0,0,0,96,0,147,132,103,0,0,0,76,0,63,113
,0,68,0,52,145,0,0,0,0,0,0,0,0,0,0,0,147,0
,87,0,74,113,75,57,0,0,0,0,0,0,70,111,0,142,0,106
,0,80,0,111,0,65,72,0,131,0,
|0,0,0,0,0,0,0,0,0,0,0,0,0,0,0,0,0,0
,0,0,0,0,0,0,0,0,0,0,138,0,0,0,0,64,72,101
,0,0,0,0,0,0,0,0,0,0,0,0,0,0,0,0,0,0
,93,0,101,107,57,0,0,0,0,0,0,99,71,0,126,0,136,0
,0,0,147,79,0,0,0,0,0,0,
|0,0,0,0,0,0,0,0,0,0,0,0,0,0,0,0,0,0
,0,0,0,0,0,0,0,0,0,0,0,0,0,0,0,0,109,80
,85,58,0,0,60,0,0,0,0,0,0,0,0,0,0,0,0,0
,0,99,110,95,0,68,0,0,0,0,0,0,116,0,0,0,0,144
,0,0,0,58,0,0,70,0,0,0,
|0,0,0,0,0,0,0,0,0,0,0,0,0,0,0,0,0,0
,0,0,0,0,0,0,0,0,0,0,0,0,0,0,0,0,137,107
,119,69,0,129,143,0,0,0,0,0,0,0,0,0,0,0,0,0
,0,97,62,0,78,140,0,0,0,0,0,0,144,0,58,134,56,148
,0,0,122,0,0,0,53,0,0,0,
|0,0,0,0,0,0,0,0,0,0,0,0,0,0,0,0,0,0
,0,0,0,0,0,0,0,0,0,0,0,0,0,0,0,0,91,0
,0,0,0,133,0,0,0,0,0,0,0,0,0,0,0,0,0,0
,0,0,0,0,0,113,0,0,0,0,0,0,0,0,148,0,0,71
,0,0,126,0,0,0,0,0,0,0,
|0,0,0,0,0,0,0,0,0,0,0,0,0,0,0,0,0,0
,0,0,0,0,0,0,0,0,0,0,0,0,0,0,0,0,124,0
,0,147,0,98,0,0,0,0,0,0,0,0,0,0,0,0,0,0
,0,0,0,0,114,69,0,0,0,0,0,0,0,0,0,61,118,0
,0,0,148,108,0,0,104,0,0,0,
|0,0,0,0,0,0,0,0,0,0,0,0,0,0,0,0,0,0
,0,0,0,0,0,0,0,0,0,0,0,0,0,0,0,0,0,0
,0,0,53,0,0,0,0,0,0,0,0,0,0,0,0,0,0,0
,0,0,0,0,91,0,0,0,0,0,0,0,0,0,94,62,51,71
,0,0,0,0,0,0,128,0,0,0,
|0,0,0,0,0,0,0,0,0,0,0,0,0,0,0,0,0,0
,0,0,0,0,0,0,0,0,0,0,0,0,0,0,0,0,0,0
,0,0,0,0,0,0,0,0,0,0,0,0,0,0,0,0,0,0
,0,0,0,0,0,76,0,0,0,0,0,0,0,0,0,142,0,135
,0,0,0,128,0,0,0,0,0,0,
|0,0,0,0,0,0,0,0,0,0,0,0,0,0,0,0,0,0
,0,0,0,0,0,0,0,0,0,0,0,0,0,0,0,0,0,0
,0,0,0,0,0,0,0,0,0,0,0,0,0,0,0,0,0,0
,0,0,0,0,0,0,0,0,0,0,0,0,0,0,0,0,0,138
,0,0,0,60,0,0,0,0,0,0,
|0,0,0,0,87,0,143,0,0,0,0,0,69,102,0,94,64,0
,0,0,112,89,0,0,0,128,0,0,0,0,0,103,122,70,0,133
,0,0,0,53,137,0,95,0,0,112,50,0,0,53,0,0,116,0
,0,0,0,105,0,0,0,0,0,0,80,0,141,0,86,0,135,58
,52,97,148,105,55,77,143,0,0,0,
|0,0,0,0,62,0,66,79,0,71,0,0,0,0,54,75,149,95
,0,99,132,0,0,0,0,0,119,95,85,0,73,146,0,0,142,0
,0,0,0,0,62,0,0,117,0,66,0,0,111,71,120,116,77,0
,135,136,0,125,0,0,0,0,0,59,0,0,102,74,0,70,0,0
,0,128,133,0,0,115,0,0,69,0,
|0,0,0,0,0,96,0,106,146,0,0,0,115,0,143,0,97,79
,0,111,61,0,0,123,0,0,92,0,88,0,134,145,86,0,0,93
,0,0,0,74,0,0,0,0,0,0,0,106,0,0,121,0,0,84
,0,0,135,0,0,54,0,0,0,0,136,81,117,0,131,108,0,93
,100,0,76,0,0,65,66,0,130,0,
|0,0,0,0,0,0,0,0,0,0,0,0,0,72,96,56,65,0
,57,0,0,90,75,137,0,0,0,103,0,0,0,0,0,0,0,130
,90,136,136,148,93,0,0,0,0,0,0,93,104,0,55,121,104,90
,0,79,0,0,84,0,0,0,0,0,0,124,66,55,0,0,0,136
,0,0,131,0,0,0,78,107,0,0,
|0,0,0,0,0,0,0,0,0,0,0,0,0,0,0,0,0,0
,0,0,0,0,0,0,53,110,0,0,0,77,0,0,0,0,0,0
,0,0,0,94,0,0,0,0,0,0,0,0,0,0,138,106,0,85
,0,64,0,135,115,0,0,0,0,0,0,59,0,0,135,0,82,61
,0,71,0,65,0,54,0,0,0,0,
|0,0,0,0,0,0,0,0,0,0,0,0,0,0,0,0,0,0
,0,0,0,0,0,0,0,0,0,0,0,0,115,137,0,0,0,0
,99,0,55,132,0,0,0,0,0,0,0,0,0,0,0,0,0,0
,0,0,125,0,72,0,0,0,0,0,0,0,96,73,137,0,0,0
,0,77,52,65,0,0,59,111,0,0,
|0,0,0,0,0,0,0,0,0,0,0,0,0,0,0,0,0,0
,0,0,0,0,0,0,0,0,0,0,0,0,0,0,0,129,67,64
,0,98,0,0,89,0,0,0,0,0,0,0,0,0,0,0,0,0
,0,117,0,109,51,72,0,0,0,0,0,0,0,0,128,0,0,121
,0,0,97,0,0,0,0,0,0,0,
|0,0,0,0,0,0,0,0,0,0,0,0,0,0,0,0,0,0
,0,0,0,0,0,0,0,0,0,0,0,0,0,0,0,139,125,108
,0,69,0,102,50,0,0,0,0,0,0,0,0,0,0,0,0,0
,0,0,0,140,121,77,0,0,0,0,0,0,0,0,0,0,51,100
,0,0,148,0,0,0,70,0,0,0,
|0,0,0,0,0,0,0,0,0,0,0,0,0,0,0,0,0,0
,0,0,0,0,0,0,0,0,0,0,0,0,0,0,0,0,0,0
,0,0,0,0,0,0,0,0,0,0,0,0,0,0,0,0,0,0
,0,0,0,0,0,0,0,0,0,0,0,0,0,0,0,127,73,130
,0,0,147,0,0,0,0,0,0,0,
|0,0,0,0,0,0,0,0,0,0,0,0,0,0,0,0,0,0
,0,0,0,0,0,0,0,0,0,0,0,0,0,0,0,0,0,0
,0,0,139,0,141,0,0,0,0,0,0,0,0,0,0,0,0,0
,0,0,0,0,0,97,0,0,0,0,0,0,0,0,0,0,99,0
,0,0,83,103,0,0,97,0,0,0,
|0,0,0,0,0,0,0,0,0,0,0,0,0,0,0,0,0,0
,0,0,0,0,0,0,0,0,0,0,0,0,0,0,0,0,0,0
,0,0,0,0,0,0,0,0,0,0,0,0,0,0,0,0,0,0
,0,0,0,0,0,0,0,0,0,0,0,0,0,0,0,0,0,0
,0,0,0,119,0,0,0,0,0,0,
|0,0,0,0,0,0,0,0,0,0,0,0,0,0,0,0,0,0,0,0,0,0,0,0
,0,0,0,0,0,0,0,0,0,0,0,0,0,0,0,0,69,0,0,0,0,0,0,0
,0,0,0,0,0,0,0,0,0,0,0,0,0,0,0,0,0,0,0,0,0,0,0,0
,0,0,0,0,0,0,0,0,0,0,
|0,0,0,0,0,0,0,0,0,0,96,0,0,94,136,130,148,0
,0,137,0,0,0,144,0,88,59,56,125,146,89,0,129,73,0,0
,0,147,0,82,0,0,0,0,127,0,0,0,0,103,0,0,0,136
,103,116,125,0,114,131,0,0,0,0,0,0,148,0,54,136,0,92
,0,122,133,0,0,87,122,72,0,0,
|0,0,0,0,0,0,0,0,0,0,0,0,0,0,0,0,0,0
,0,0,0,0,0,0,0,0,0,0,0,0,145,0,121,0,0,0
,110,83,0,0,132,0,0,0,0,0,0,0,0,0,0,0,0,56
,140,0,70,0,0,130,0,0,0,0,0,0,0,0,127,0,0,129
,0,0,0,0,0,0,0,95,0,0,
|0,0,0,0,0,0,0,0,0,0,0,0,0,0,0,0,0,0
,0,0,0,0,0,0,0,0,0,0,0,0,0,0,0,0,0,0
,0,0,0,0,125,0,0,0,0,0,0,0,0,0,0,0,0,0
,0,0,0,0,0,0,0,0,0,0,0,0,0,0,0,0,0,0
,0,0,0,94,0,0,0,0,0,0,
|0,0,0,0,0,0,0,0,0,0,0,0,0,0,0,0,0,0,0,0,0,0,0,0,0,0,0,0,0,0,0,0,0,0,0,0,0
,0,0,0,0,0,0,0,0,0,0,0,0,0,0,0,0,0,0,0,0,0,0,0,0,0,0,0,0,0,0,0,0,0,0,0,0,0
,0,0,0,0,0,0,0,0,
|0,0,0,0,0,63,141,71,75,0,0,71,0,0,76,0,92,0
,119,116,52,0,105,0,86,0,0,69,129,0,118,65,0,146,0,147
,0,0,53,84,77,0,0,126,0,54,0,0,84,0,60,0,50,0
,70,103,0,144,67,0,0,0,138,93,51,0,0,0,130,0,139,110
,0,0,0,88,0,0,0,0,114,0,
|0,0,0,0,0,0,0,0,0,0,0,0,0,0,0,0,0,0
,0,0,0,0,0,0,0,0,138,0,0,105,88,140,67,0,0,106
,99,0,119,0,91,0,0,0,0,0,0,0,0,0,0,0,0,51
,90,111,126,104,97,0,0,0,0,0,0,109,0,72,56,149,54,0
,0,0,99,0,0,0,0,0,72,0,
|0,0,0,0,0,0,0,0,0,0,0,0,0,0,0,0,0,0
,0,0,0,0,0,0,0,0,0,0,0,0,0,0,0,0,0,0
,0,0,97,0,0,0,0,0,0,0,0,0,0,0,0,0,0,0
,0,0,0,0,0,84,0,0,0,0,0,0,0,0,0,0,125,60
,0,0,0,0,0,0,0,0,0,0,
|0,0,0,0,0,0,0,0,0,0,0,0,0,0,0,0,0,0
,0,0,0,0,0,0,0,0,0,0,0,0,0,0,0,0,139,114
,0,133,0,0,136,0,0,0,0,0,0,0,0,0,0,0,0,0
,96,106,91,0,104,0,0,0,0,0,0,0,0,0,50,0,0,117
,0,0,0,0,0,0,132,0,0,0,
|0,0,0,0,0,0,0,0,0,0,0,0,0,0,0,0,0,0
,0,0,0,0,0,0,101,66,0,0,76,0,0,0,0,85,107,0
,97,97,129,0,59,0,0,0,0,0,0,0,0,0,0,0,0,119
,89,0,116,99,135,0,0,0,0,0,0,113,71,0,0,133,0,126
,0,73,0,0,0,0,0,98,0,0,
|0,0,0,0,0,0,0,0,0,0,0,0,0,0,0,0,0,0,0,0,0,0,0,0,0,0,0,0,0,0,0,0,0,0,0,0,0
,0,0,0,0,0,0,0,0,0,0,0,0,0,0,0,0,0,0,0,0,0,0,0,0,0,0,0,0,0,0,0,0,0,0,0,0,0
,0,0,0,0,0,0,0,0|];
max_time=5000;
